Maximize
  2.1 x_laminate_planks + 3.3 x_carpets
Subject To
  c1: x_laminate_planks >= 15,000
  c2: x_carpets >= 5,000
  c3: x_laminate_planks + x_carpets >= 50,000
  c4: x_laminate_planks <= 40,000
  c5: x_carpets <= 20,000
End